
(set-logic ALL) 

(declare-datatype MyList ((Nil) (Cons (head Real) (tail MyList)) )) 
(declare-fun l0 () MyList) 
(declare-fun l1 () MyList) 
(declare-fun l2 () MyList) 
(declare-fun l3 () MyList) 
(declare-fun i0 () Real) 
(declare-fun i1 () Real) 
(assert (or (= l2 Nil) (is-Cons Nil) (is-Nil Nil) (is-Nil Nil)) )
(assert (or (= l0 l1) (is-Nil Nil) (= l1 Nil)) )
(assert (or (= l0 Nil) (is-Cons l1) (= l1 l1) (= l1 Nil)) )
(assert (and (is-Nil l2) (= l1 Nil) (= l2 Nil)) )
(assert (and (= l2 Nil) (is-Cons l1) (is-Cons Nil)) )
(assert (or (= l2 Nil) (is-Nil Nil) (= l1 l0) (= l2 Nil)) )
(assert (= l0 Nil) )
(assert (is-Nil Nil) )
(check-sat)
